\ENCODING=ISO-8859-1
\Problem name: ilog.cplex

Minimize
 obj1: cdmax1#96 + cdmax1#97
Subject To
 CI1e0j0: x0_1_0#0 + x1_0_0#1 + x0_2_0#2 + x2_0_0#3 + x0_3_0#4 + x3_0_0#5  = 1
 CI1e1j0: x0_1_0#0 + x1_0_0#1 + x1_2_0#6 + x2_1_0#7 + x1_3_0#8 + x3_1_0#9  = 1
 CI1e2j0: x0_2_0#2 + x2_0_0#3 + x1_2_0#6 + x2_1_0#7 + x2_3_0#10 + x3_2_0#11
           = 1
 CI1e3j0: x0_3_0#4 + x3_0_0#5 + x1_3_0#8 + x3_1_0#9 + x2_3_0#10 + x3_2_0#11
           = 1
 CI1e0j1: x0_1_1#12 + x1_0_1#13 + x0_2_1#14 + x2_0_1#15 + x0_3_1#16 + x3_0_1#17
           = 1
 CI1e1j1: x0_1_1#12 + x1_0_1#13 + x1_2_1#18 + x2_1_1#19 + x1_3_1#20 + x3_1_1#21
           = 1
 CI1e2j1: x0_2_1#14 + x2_0_1#15 + x1_2_1#18 + x2_1_1#19 + x2_3_1#22 + x3_2_1#23
           = 1
 CI1e3j1: x0_3_1#16 + x3_0_1#17 + x1_3_1#20 + x3_1_1#21 + x2_3_1#22 + x3_2_1#23
           = 1
 CI1e0j2: x0_1_2#24 + x1_0_2#25 + x0_2_2#26 + x2_0_2#27 + x0_3_2#28 + x3_0_2#29
           = 1
 CI1e1j2: x0_1_2#24 + x1_0_2#25 + x1_2_2#30 + x2_1_2#31 + x1_3_2#32 + x3_1_2#33
           = 1
 CI1e2j2: x0_2_2#26 + x2_0_2#27 + x1_2_2#30 + x2_1_2#31 + x2_3_2#34 + x3_2_2#35
           = 1
 CI1e3j2: x0_3_2#28 + x3_0_2#29 + x1_3_2#32 + x3_1_2#33 + x2_3_2#34 + x3_2_2#35
           = 1
 CI1e0j3: x0_1_3#36 + x1_0_3#37 + x0_2_3#38 + x2_0_3#39 + x0_3_3#40 + x3_0_3#41
           = 1
 CI1e1j3: x0_1_3#36 + x1_0_3#37 + x1_2_3#42 + x2_1_3#43 + x1_3_3#44 + x3_1_3#45
           = 1
 CI1e2j3: x0_2_3#38 + x2_0_3#39 + x1_2_3#42 + x2_1_3#43 + x2_3_3#46 + x3_2_3#47
           = 1
 CI1e3j3: x0_3_3#40 + x3_0_3#41 + x1_3_3#44 + x3_1_3#45 + x2_3_3#46 + x3_2_3#47
           = 1
 CI1e0j4: x0_1_4#48 + x1_0_4#49 + x0_2_4#50 + x2_0_4#51 + x0_3_4#52 + x3_0_4#53
           = 1
 CI1e1j4: x0_1_4#48 + x1_0_4#49 + x1_2_4#54 + x2_1_4#55 + x1_3_4#56 + x3_1_4#57
           = 1
 CI1e2j4: x0_2_4#50 + x2_0_4#51 + x1_2_4#54 + x2_1_4#55 + x2_3_4#58 + x3_2_4#59
           = 1
 CI1e3j4: x0_3_4#52 + x3_0_4#53 + x1_3_4#56 + x3_1_4#57 + x2_3_4#58 + x3_2_4#59
           = 1
 CI1e0j5: x0_1_5#60 + x1_0_5#61 + x0_2_5#62 + x2_0_5#63 + x0_3_5#64 + x3_0_5#65
           = 1
 CI1e1j5: x0_1_5#60 + x1_0_5#61 + x1_2_5#66 + x2_1_5#67 + x1_3_5#68 + x3_1_5#69
           = 1
 CI1e2j5: x0_2_5#62 + x2_0_5#63 + x1_2_5#66 + x2_1_5#67 + x2_3_5#70 + x3_2_5#71
           = 1
 CI1e3j5: x0_3_5#64 + x3_0_5#65 + x1_3_5#68 + x3_1_5#69 + x2_3_5#70 + x3_2_5#71
           = 1
 CI2d0e0: x0_0_0#72 + x0_0_1#73 + x0_0_2#74 + x0_0_3#75 + x0_0_4#76 + x0_0_5#77
           = 0
 CI2d0e1: x0_1_0#0 + x0_1_1#12 + x0_1_2#24 + x0_1_3#36 + x0_1_4#48 + x0_1_5#60
           = 1
 CI2d0e2: x0_2_0#2 + x0_2_1#14 + x0_2_2#26 + x0_2_3#38 + x0_2_4#50 + x0_2_5#62
           = 1
 CI2d0e3: x0_3_0#4 + x0_3_1#16 + x0_3_2#28 + x0_3_3#40 + x0_3_4#52 + x0_3_5#64
           = 1
 CI2d1e0: x1_0_0#1 + x1_0_1#13 + x1_0_2#25 + x1_0_3#37 + x1_0_4#49 + x1_0_5#61
           = 1
 CI2d1e1: x1_1_0#78 + x1_1_1#79 + x1_1_2#80 + x1_1_3#81 + x1_1_4#82 + x1_1_5#83
           = 0
 CI2d1e2: x1_2_0#6 + x1_2_1#18 + x1_2_2#30 + x1_2_3#42 + x1_2_4#54 + x1_2_5#66
           = 1
 CI2d1e3: x1_3_0#8 + x1_3_1#20 + x1_3_2#32 + x1_3_3#44 + x1_3_4#56 + x1_3_5#68
           = 1
 CI2d2e0: x2_0_0#3 + x2_0_1#15 + x2_0_2#27 + x2_0_3#39 + x2_0_4#51 + x2_0_5#63
           = 1
 CI2d2e1: x2_1_0#7 + x2_1_1#19 + x2_1_2#31 + x2_1_3#43 + x2_1_4#55 + x2_1_5#67
           = 1
 CI2d2e2: x2_2_0#84 + x2_2_1#85 + x2_2_2#86 + x2_2_3#87 + x2_2_4#88 + x2_2_5#89
           = 0
 CI2d2e3: x2_3_0#10 + x2_3_1#22 + x2_3_2#34 + x2_3_3#46 + x2_3_4#58 + x2_3_5#70
           = 1
 CI2d3e0: x3_0_0#5 + x3_0_1#17 + x3_0_2#29 + x3_0_3#41 + x3_0_4#53 + x3_0_5#65
           = 1
 CI2d3e1: x3_1_0#9 + x3_1_1#21 + x3_1_2#33 + x3_1_3#45 + x3_1_4#57 + x3_1_5#69
           = 1
 CI2d3e2: x3_2_0#11 + x3_2_1#23 + x3_2_2#35 + x3_2_3#47 + x3_2_4#59 + x3_2_5#71
           = 1
 CI2d3e3: x3_3_0#90 + x3_3_1#91 + x3_3_2#92 + x3_3_3#93 + x3_3_4#94 + x3_3_5#95
           = 0
 CI3d0e1: x0_1_0#0 + x1_0_0#1 + x0_1_1#12 + x1_0_1#13 + x0_1_2#24 + x1_0_2#25
           = 1
 CI3d0e2: x0_2_0#2 + x2_0_0#3 + x0_2_1#14 + x2_0_1#15 + x0_2_2#26 + x2_0_2#27
           = 1
 CI3d0e3: x0_3_0#4 + x3_0_0#5 + x0_3_1#16 + x3_0_1#17 + x0_3_2#28 + x3_0_2#29
           = 1
 CI3d1e0: x0_1_0#0 + x1_0_0#1 + x0_1_1#12 + x1_0_1#13 + x0_1_2#24 + x1_0_2#25
           = 1
 CI3d1e2: x1_2_0#6 + x2_1_0#7 + x1_2_1#18 + x2_1_1#19 + x1_2_2#30 + x2_1_2#31
           = 1
 CI3d1e3: x1_3_0#8 + x3_1_0#9 + x1_3_1#20 + x3_1_1#21 + x1_3_2#32 + x3_1_2#33
           = 1
 CI3d2e0: x0_2_0#2 + x2_0_0#3 + x0_2_1#14 + x2_0_1#15 + x0_2_2#26 + x2_0_2#27
           = 1
 CI3d2e1: x1_2_0#6 + x2_1_0#7 + x1_2_1#18 + x2_1_1#19 + x1_2_2#30 + x2_1_2#31
           = 1
 CI3d2e3: x2_3_0#10 + x3_2_0#11 + x2_3_1#22 + x3_2_1#23 + x2_3_2#34 + x3_2_2#35
           = 1
 CI3d3e0: x0_3_0#4 + x3_0_0#5 + x0_3_1#16 + x3_0_1#17 + x0_3_2#28 + x3_0_2#29
           = 1
 CI3d3e1: x1_3_0#8 + x3_1_0#9 + x1_3_1#20 + x3_1_1#21 + x1_3_2#32 + x3_1_2#33
           = 1
 CI3d3e2: x2_3_0#10 + x3_2_0#11 + x2_3_1#22 + x3_2_1#23 + x2_3_2#34 + x3_2_2#35
           = 1
 CDP1_52: x0_1_0#0 + x0_2_0#2 + x0_3_0#4 + x0_1_1#12 + x0_2_1#14 + x0_3_1#16
          + x0_1_2#24 + x0_2_2#26 + x0_3_2#28 - cdmax1#96 <= 0
Bounds
 0 <= x0_1_0#0 <= 1
 0 <= x1_0_0#1 <= 1
 0 <= x0_2_0#2 <= 1
 0 <= x2_0_0#3 <= 1
 0 <= x0_3_0#4 <= 1
 0 <= x3_0_0#5 <= 1
 0 <= x1_2_0#6 <= 1
 0 <= x2_1_0#7 <= 1
 0 <= x1_3_0#8 <= 1
 0 <= x3_1_0#9 <= 1
 0 <= x2_3_0#10 <= 1
 0 <= x3_2_0#11 <= 1
 0 <= x0_1_1#12 <= 1
 0 <= x1_0_1#13 <= 1
 0 <= x0_2_1#14 <= 1
 0 <= x2_0_1#15 <= 1
 0 <= x0_3_1#16 <= 1
 0 <= x3_0_1#17 <= 1
 0 <= x1_2_1#18 <= 1
 0 <= x2_1_1#19 <= 1
 0 <= x1_3_1#20 <= 1
 0 <= x3_1_1#21 <= 1
 0 <= x2_3_1#22 <= 1
 0 <= x3_2_1#23 <= 1
 0 <= x0_1_2#24 <= 1
 0 <= x1_0_2#25 <= 1
 0 <= x0_2_2#26 <= 1
 0 <= x2_0_2#27 <= 1
 0 <= x0_3_2#28 <= 1
 0 <= x3_0_2#29 <= 1
 0 <= x1_2_2#30 <= 1
 0 <= x2_1_2#31 <= 1
 0 <= x1_3_2#32 <= 1
 0 <= x3_1_2#33 <= 1
 0 <= x2_3_2#34 <= 1
 0 <= x3_2_2#35 <= 1
 0 <= x0_1_3#36 <= 1
 0 <= x1_0_3#37 <= 1
 0 <= x0_2_3#38 <= 1
 0 <= x2_0_3#39 <= 1
 0 <= x0_3_3#40 <= 1
 0 <= x3_0_3#41 <= 1
 0 <= x1_2_3#42 <= 1
 0 <= x2_1_3#43 <= 1
 0 <= x1_3_3#44 <= 1
 0 <= x3_1_3#45 <= 1
 0 <= x2_3_3#46 <= 1
 0 <= x3_2_3#47 <= 1
 0 <= x0_1_4#48 <= 1
 0 <= x1_0_4#49 <= 1
 0 <= x0_2_4#50 <= 1
 0 <= x2_0_4#51 <= 1
 0 <= x0_3_4#52 <= 1
 0 <= x3_0_4#53 <= 1
 0 <= x1_2_4#54 <= 1
 0 <= x2_1_4#55 <= 1
 0 <= x1_3_4#56 <= 1
 0 <= x3_1_4#57 <= 1
 0 <= x2_3_4#58 <= 1
 0 <= x3_2_4#59 <= 1
 0 <= x0_1_5#60 <= 1
 0 <= x1_0_5#61 <= 1
 0 <= x0_2_5#62 <= 1
 0 <= x2_0_5#63 <= 1
 0 <= x0_3_5#64 <= 1
 0 <= x3_0_5#65 <= 1
 0 <= x1_2_5#66 <= 1
 0 <= x2_1_5#67 <= 1
 0 <= x1_3_5#68 <= 1
 0 <= x3_1_5#69 <= 1
 0 <= x2_3_5#70 <= 1
 0 <= x3_2_5#71 <= 1
 0 <= x0_0_0#72 <= 1
 0 <= x0_0_1#73 <= 1
 0 <= x0_0_2#74 <= 1
 0 <= x0_0_3#75 <= 1
 0 <= x0_0_4#76 <= 1
 0 <= x0_0_5#77 <= 1
 0 <= x1_1_0#78 <= 1
 0 <= x1_1_1#79 <= 1
 0 <= x1_1_2#80 <= 1
 0 <= x1_1_3#81 <= 1
 0 <= x1_1_4#82 <= 1
 0 <= x1_1_5#83 <= 1
 0 <= x2_2_0#84 <= 1
 0 <= x2_2_1#85 <= 1
 0 <= x2_2_2#86 <= 1
 0 <= x2_2_3#87 <= 1
 0 <= x2_2_4#88 <= 1
 0 <= x2_2_5#89 <= 1
 0 <= x3_3_0#90 <= 1
 0 <= x3_3_1#91 <= 1
 0 <= x3_3_2#92 <= 1
 0 <= x3_3_3#93 <= 1
 0 <= x3_3_4#94 <= 1
 0 <= x3_3_5#95 <= 1
      cdmax1#96 >= 0
      cdmax1#97 >= 0
Generals
 x0_1_0#0  x1_0_0#1  x0_2_0#2  x2_0_0#3  x0_3_0#4  x3_0_0#5  x1_2_0#6 
 x2_1_0#7  x1_3_0#8  x3_1_0#9  x2_3_0#10  x3_2_0#11  x0_1_1#12  x1_0_1#13 
 x0_2_1#14  x2_0_1#15  x0_3_1#16  x3_0_1#17  x1_2_1#18  x2_1_1#19  x1_3_1#20 
 x3_1_1#21  x2_3_1#22  x3_2_1#23  x0_1_2#24  x1_0_2#25  x0_2_2#26  x2_0_2#27 
 x0_3_2#28  x3_0_2#29  x1_2_2#30  x2_1_2#31  x1_3_2#32  x3_1_2#33  x2_3_2#34 
 x3_2_2#35  x0_1_3#36  x1_0_3#37  x0_2_3#38  x2_0_3#39  x0_3_3#40  x3_0_3#41 
 x1_2_3#42  x2_1_3#43  x1_3_3#44  x3_1_3#45  x2_3_3#46  x3_2_3#47  x0_1_4#48 
 x1_0_4#49  x0_2_4#50  x2_0_4#51  x0_3_4#52  x3_0_4#53  x1_2_4#54  x2_1_4#55 
 x1_3_4#56  x3_1_4#57  x2_3_4#58  x3_2_4#59  x0_1_5#60  x1_0_5#61  x0_2_5#62 
 x2_0_5#63  x0_3_5#64  x3_0_5#65  x1_2_5#66  x2_1_5#67  x1_3_5#68  x3_1_5#69 
 x2_3_5#70  x3_2_5#71  x0_0_0#72  x0_0_1#73  x0_0_2#74  x0_0_3#75  x0_0_4#76 
 x0_0_5#77  x1_1_0#78  x1_1_1#79  x1_1_2#80  x1_1_3#81  x1_1_4#82  x1_1_5#83 
 x2_2_0#84  x2_2_1#85  x2_2_2#86  x2_2_3#87  x2_2_4#88  x2_2_5#89  x3_3_0#90 
 x3_3_1#91  x3_3_2#92  x3_3_3#93  x3_3_4#94  x3_3_5#95  cdmax1#96  cdmax1#97 
End
